(set-info :source |printed by MathSAT|)

1 (5) @37:
(assert true)

5 (12) @52:
(assert true)

12 (17,16,14,13) @52:
(assert true)

17 () @406:
(assert true)

16 () @407:
(assert true)

14 () @52:
(assert true)

13 () @408:
(assert true)

